(set-logic QF_FP)
(set-option :produce-models true)
(set-info :source |Random FP created by PyMPF|)
(set-info :category random)
(set-info :status sat)
(declare-const x Float32)
(assert (= x (fp #b1 #b00110001 #b01110101000011000000011)))
(declare-const y Float32)
(assert (= y ((_ to_fp 8 24) #x85CB8485)))
(declare-const z Float32)
(assert (= z (fp #b1 #b00000000 #b00000000000000000000000)))
(declare-const result Float32)
(assert (= result (fp.fma RTN x y z)))
(assert (= result (_ +zero 8 24)))
(check-sat)
(exit)
